NAME: tsp_404
COMMENT: Random TSP instance
TYPE: TSP
DIMENSION: 50
EDGE_WEIGHT_TYPE: EUC_2D
NODE_COORD_SECTION
1 511 283
2 428 176
3 158 539
4 866 553
5 287 595
6 455 555
7 647 774
8 775 163
9 779 126
10 275 465
11 91 541
12 813 307
13 612 248
14 669 220
15 271 925
16 111 295
17 692 982
18 829 564
19 221 802
20 89 631
21 247 374
22 945 547
23 617 147
24 887 717
25 100 314
26 298 80
27 261 845
28 889 762
29 221 489
30 383 402
31 832 793
32 670 154
33 237 376
34 396 934
35 474 298
36 775 704
37 538 510
38 78 316
39 704 737
40 610 116
41 487 921
42 443 619
43 99 223
44 265 17
45 711 164
46 178 269
47 942 404
48 69 394
49 594 221
50 967 495
